305 142
445 116
224 296
610 442
535 275
355 450
400 260
594 390
482 386
521 331
373 344
433 310
319 263
507 175
207 175
227  71
379  77
400 185
600  99
276 216
267 371
607 250
499 243
119 340
174 442
463 442
147 243
643 181
508  79
267 429
422 494
